(declare-fun var0 () String)
(declare-fun var1 () String)
(declare-fun var2 () String)
(declare-fun var3 () String)
(declare-fun var4 () String)
(declare-fun var5 () String)
(declare-fun var6 () String)
(declare-fun var7 () String)
(declare-fun var8 () String)
(declare-fun var9 () String)
(declare-fun var10 () String)
(declare-fun var11 () String)
(declare-fun var12 () String)
(declare-fun var13 () String)
(declare-fun var14 () String)
(declare-fun var15 () String)
(declare-fun var16 () String)
(declare-fun var17 () String)
(declare-fun var18 () String)
(declare-fun var19 () String)
(declare-fun var20 () String)
(declare-fun var21 () String)
(declare-fun var22 () String)
(declare-fun var23 () String)
(declare-fun var24 () String)
(declare-fun var25 () String)
(declare-fun var26 () String)
(declare-fun var27 () String)
(declare-fun var28 () String)
(declare-fun var29 () String)
(declare-fun var30 () String)
(declare-fun var31 () String)
(declare-fun var32 () String)
(declare-fun var33 () String)
(declare-fun var34 () String)
(declare-fun var35 () String)
(declare-fun var36 () String)
(declare-fun var37 () String)
(declare-fun var38 () String)
(declare-fun var39 () String)
(declare-fun var40 () String)
(declare-fun var41 () String)
(declare-fun var42 () String)
(declare-fun var43 () String)
(declare-fun var44 () String)
(declare-fun var45 () String)
(declare-fun var46 () String)
(declare-fun var47 () String)
(declare-fun var48 () String)
(declare-fun var49 () String)
(declare-fun var50 () String)
(declare-fun var51 () String)
(declare-fun var52 () String)
(declare-fun var53 () String)
(declare-fun var54 () String)
(declare-fun var55 () String)
(declare-fun var56 () String)
(declare-fun var57 () String)
(declare-fun var58 () String)
(declare-fun var59 () String)
(declare-fun var60 () String)
(declare-fun var61 () String)
(declare-fun var62 () String)
(declare-fun var63 () String)
(declare-fun var64 () String)
(declare-fun var65 () String)
(declare-fun var66 () String)
(declare-fun var67 () String)
(declare-fun var68 () String)
(declare-fun var69 () String)
(assert (= 65 (Length var0)))
(assert (= 20 (Length var1)))
(assert (= 48 (Length var2)))
(assert (= 6 (Length var3)))
(assert (= 36 (Length var4)))
(assert (= 95 (Length var5)))
(assert (= 38 (Length var6)))
(assert (= 5 (Length var7)))
(assert (= 66 (Length var8)))
(assert (= 7 (Length var9)))
(assert (= 36 (Length var10)))
(assert (= 57 (Length var11)))
(assert (= 9 (Length var12)))
(assert (= 97 (Length var13)))
(assert (= 100 (Length var14)))
(assert (= 8 (Length var15)))
(assert (= 94 (Length var16)))
(assert (= 17 (Length var17)))
(assert (= 17 (Length var18)))
(assert (= 59 (Length var19)))
(assert (= 66 (Length var20)))
(assert (= 48 (Length var21)))
(assert (= 76 (Length var22)))
(assert (= 95 (Length var23)))
(assert (= 25 (Length var24)))
(assert (= 59 (Length var25)))
(assert (= 16 (Length var26)))
(assert (= 27 (Length var27)))
(assert (= 24 (Length var28)))
(assert (= 17 (Length var29)))
(assert (= 40 (Length var30)))
(assert (= 69 (Length var31)))
(assert (= 39 (Length var32)))
(assert (= 1 (Length var33)))
(assert (= 38 (Length var34)))
(assert (= 22 (Length var35)))
(assert (= 32 (Length var36)))
(assert (= 77 (Length var37)))
(assert (= 34 (Length var38)))
(assert (= 54 (Length var39)))
(assert (= 8 (Length var40)))
(assert (= 11 (Length var41)))
(assert (= 50 (Length var42)))
(assert (= 92 (Length var43)))
(assert (= 12 (Length var44)))
(assert (= 26 (Length var45)))
(assert (= 80 (Length var46)))
(assert (= 32 (Length var47)))
(assert (= 25 (Length var48)))
(assert (= 69 (Length var49)))
(assert (= 15 (Length var50)))
(assert (= 94 (Length var51)))
(assert (= 76 (Length var52)))
(assert (= 86 (Length var53)))
(assert (= 13 (Length var54)))
(assert (= 79 (Length var55)))
(assert (= 45 (Length var56)))
(assert (= 37 (Length var57)))
(assert (= 12 (Length var58)))
(assert (= 40 (Length var59)))
(assert (= 34 (Length var60)))
(assert (= 15 (Length var61)))
(assert (= 31 (Length var62)))
(assert (= 2 (Length var63)))
(assert (= 58 (Length var64)))
(assert (= 86 (Length var65)))
(assert (= 77 (Length var66)))
(assert (= 2 (Length var67)))
(assert (= 7 (Length var68)))
(assert (= 57 (Length var69)))
(assert (= 194 (Length (Concat var14 var51))))
(assert (= 109 (Length (Concat var61 var16))))
(assert (= 155 (Length (Concat var31 var65))))
(assert (= 52 (Length (Concat var44 var30))))
(assert (= 87 (Length (Concat var46 var68))))
(assert (= 97 (Length (Concat var1 var37))))
(assert (= 140 (Length (Concat var43 var21))))
(check-sat)